p cnf 31 76
a 25 22 0
e 1 2 3 4 5 6 7 8 9 10 11 12 13 14 15 16 17 18 19 20 21 23 24 26 27 28 29 30 31 0
3 -1 0
3 2 0
1 -2 -3 0
6 -4 0
6 -5 0
4 5 -6 0
-7 3 0
-7 6 0
-3 -6 7 0
11 -9 0
11 -10 0
9 10 -11 0
8 -11 -12 0
-8 11 -12 0
8 11 12 0
-8 -11 12 0
14 -13 0
14 -3 0
13 3 -14 0
15 -8 0
15 2 0
8 -2 -15 0
17 -15 0
17 16 0
15 -16 -17 0
14 17 -18 0
-14 -17 -18 0
14 -17 18 0
-14 17 18 0
20 2 0
20 -19 0
-2 19 -20 0
21 -18 0
21 -20 0
18 20 -21 0
10 -8 -22 0
-10 8 -22 0
10 8 22 0
-10 -8 22 0
23 -2 0
23 -16 0
2 16 -23 0
24 23 0
24 2 0
-23 -2 -24 0
24 -3 -25 0
-24 3 -25 0
24 3 25 0
-24 -3 25 0
-26 -10 0
-26 -8 0
10 8 26 0
25 26 -27 0
-25 -26 -27 0
25 -26 27 0
-25 26 27 0
28 -22 0
28 27 0
22 -27 -28 0
29 -21 0
29 -28 0
21 28 -29 0
-30 -12 0
-30 29 0
12 -29 30 0
31 7 0
31 -30 0
-7 30 -31 0
15 -29 -16 0
14 -10 -18 31 7 3 26 0
-19 -23 7 -27 11 -18 9 -2 0
28 -22 13 7 -15 -19 0
4 -7 -30 1 0
25 -29 12 8 1 0
-12 15 27 -23 -6 -31 0
31 0
